151.8 169.5
153.6 291.7
184.5 170.5
86.0 166.4
140.3 183.0
279.1 73.8
92.8 117.3
81.1 105.0
280.9 113.4
232.4 12.2
89.6 210.8
135.7 267.0
130.5 187.1
175.6 179.7
196.7 153.4
58.1 20.7
75.6 28.6
33.9 84.2
177.8 103.0
233.4 289.6
99.6 70.9
206.3 171.8
230.9 185.1
83.9 273.3
171.9 215.5
201.7 230.9
225.7 123.1
11.4 145.5
268.6 43.4
234.6 196.6
211.7 65.4
22.6 80.3
187.0 116.6
76.4 119.1
218.4 76.7
163.4 121.9
297.9 256.2
216.8 165.2
119.5 203.3
252.7 42.0
